AES/1_3_4/ssaes_r1-20_c3_rw1_e4_f0_k1-20_aes_min_box_aes_mc_bidirectional/ExperimentMinisat_r20_k7cnf_2011-10-29-154006/Result
WARNING: for repeatability, setting FPU to use double precision
============================[ Problem Statistics ]=============================
|                                                                             |
|  Number of variables:          1156                                         |
|  Number of clauses:            4688                                         |
|  Parse time:                   0.00 s                                       |
|  Eliminated clauses:           0.01 Mb                                      |
|  Simplification time:          0.00 s                                       |
|                                                                             |
=============================[ Search Statistics ]==============================
| Conflicts  |          ORIGINAL         |          LEARNT          | Progress |
|            |    Vars  Clauses Literals |    Limit  Clauses Lit/Cl |          |
================================================================================
|        100 |     800     3656    12224 |     1340      100     11 |  8.997 % |
|        250 |     800     3656    12224 |     1474      250     11 |  8.997 % |
|        475 |     800     3656    12224 |     1622      475     11 |  8.997 % |
|        812 |     800     3656    12224 |     1784      812     12 |  8.997 % |
|       1318 |     800     3656    12224 |     1962     1318     12 |  8.997 % |
|       2077 |     800     3656    12224 |     2158     2077     12 |  8.997 % |
|       3216 |     800     3656    12224 |     2374     2073     11 |  8.997 % |
===============================================================================
restarts              : 22
conflicts             : 4285           (40053 /sec)
decisions             : 6756           (0.00 % random) (63150 /sec)
propagations          : 418183         (3908873 /sec)
conflict literals     : 52401          (18.90 % deleted)
Memory used           : 8.00 MB
CPU time              : 0.106983 s

SATISFIABLE
